%%MatrixMarket matrix coordinate pattern symmetric
%
% This is a complement of the original instance 
%
200 200 1990
3 1
4 1
5 1
9 3
9 7
9 8
10 9
11 9
13 8
13 10
15 3
15 6
16 9
17 8
19 7
20 19
21 16
21 19
22 3
22 8
22 17
22 18
22 20
23 9
24 14
25 2
25 8
25 17
25 18
25 21
25 23
26 13
26 22
26 25
28 5
28 23
29 6
29 12
29 21
29 24
29 26
29 27
30 2
31 2
31 17
31 19
31 20
31 26
31 30
32 10
32 28
33 22
33 29
34 2
34 4
34 8
34 10
34 12
34 14
34 27
34 30
34 33
35 6
35 15
35 19
35 31
35 34
36 25
37 22
37 28
37 29
37 31
38 9
38 13
38 28
39 2
39 10
39 12
39 14
39 25
39 37
40 13
40 31
41 3
41 4
41 9
41 18
41 20
41 26
42 8
42 10
42 11
42 13
42 18
42 36
42 37
42 38
43 9
43 27
43 28
43 34
44 6
44 8
44 12
44 15
44 18
44 23
44 24
44 37
44 40
45 2
45 3
45 5
45 17
45 19
45 21
45 30
45 31
45 32
45 35
46 16
46 21
46 28
46 29
46 41
46 44
47 10
47 11
47 12
47 20
47 23
47 36
47 43
48 11
48 17
48 32
48 37
48 43
48 46
49 28
49 29
49 42
50 6
50 12
50 14
50 16
50 25
50 26
50 32
50 33
50 39
50 40
50 43
51 3
51 21
51 25
51 35
51 39
51 49
51 50
52 29
52 41
52 42
53 6
53 17
53 21
53 23
53 37
53 40
54 15
54 22
54 28
54 48
55 6
55 27
55 38
55 46
56 5
56 41
56 42
56 55
57 5
57 7
57 11
57 16
57 55
58 11
58 22
58 28
58 31
58 39
58 47
59 1
59 13
59 20
59 31
59 42
59 50
59 55
60 15
60 19
60 48
61 3
61 8
61 14
61 17
61 19
61 26
61 30
61 31
61 38
61 40
61 45
61 56
61 59
61 60
62 2
62 7
62 21
62 26
62 27
62 32
62 33
62 37
62 38
62 52
62 59
63 3
63 21
63 22
63 26
63 38
63 43
63 49
64 22
64 44
64 47
64 57
65 14
65 17
65 20
65 36
65 37
65 38
65 43
65 46
66 12
66 19
66 28
66 48
67 3
67 8
67 12
67 23
67 64
68 51
68 53
68 57
68 63
69 1
69 13
69 19
69 25
69 40
69 42
69 51
70 28
70 33
70 50
70 51
71 28
71 37
71 41
71 47
72 2
72 10
72 12
72 17
72 18
72 21
72 30
72 33
72 35
72 38
72 40
72 43
72 46
72 52
72 56
72 68
73 3
73 18
73 27
73 54
73 68
73 69
73 70
74 1
74 5
74 16
74 18
74 66
74 68
74 69
75 2
75 3
75 7
75 14
75 20
75 32
75 48
75 60
75 70
75 71
76 1
76 60
76 61
76 62
77 11
77 21
77 22
77 23
77 24
77 26
77 33
77 38
77 46
77 56
77 59
77 63
78 10
78 11
78 21
78 23
78 30
78 32
78 56
78 62
78 64
78 66
78 70
78 76
79 7
79 22
79 25
79 34
79 45
79 53
79 61
79 72
80 3
80 28
80 47
80 57
80 73
80 74
80 77
81 41
81 49
81 53
81 61
82 3
82 5
82 10
82 32
82 56
82 70
82 79
83 6
83 22
83 28
83 29
83 31
83 34
83 35
83 42
83 53
83 65
84 12
84 15
84 16
84 30
84 37
84 44
84 49
84 81
85 23
85 37
85 46
85 47
85 59
85 60
86 2
86 8
86 14
86 40
86 43
86 81
87 19
87 22
87 53
87 57
87 65
87 74
88 9
88 13
88 22
88 25
88 29
88 41
88 42
88 47
88 50
88 68
88 72
88 77
88 78
89 4
89 9
89 19
89 28
89 42
89 50
89 73
89 75
89 85
90 1
90 19
90 25
90 26
90 44
90 63
90 84
91 34
91 61
91 74
91 78
91 86
92 1
92 13
92 31
92 42
92 47
92 53
92 55
92 61
92 63
92 82
92 85
93 2
93 10
93 17
93 37
93 38
93 52
93 53
93 71
93 76
93 90
94 42
94 47
94 50
94 55
94 65
94 77
94 78
94 85
94 87
94 93
95 19
95 52
95 73
95 78
95 85
96 14
96 24
96 74
96 82
96 86
97 5
97 13
97 15
97 42
97 44
97 53
97 56
97 61
97 74
97 75
97 86
97 93
98 1
98 29
98 42
98 47
98 50
98 54
98 55
98 62
99 22
99 27
99 43
99 44
99 45
99 53
99 62
99 65
99 72
99 77
99 93
100 42
100 51
100 65
101 3
101 37
101 40
101 54
101 59
101 64
101 70
101 71
101 72
101 79
101 89
101 94
101 98
101 99
102 13
102 25
102 38
102 67
102 75
102 85
103 6
103 7
103 23
103 24
103 36
103 56
103 59
103 60
103 67
103 69
103 87
103 94
103 99
103 100
104 8
104 29
104 30
104 33
104 38
104 46
104 49
104 52
104 56
104 69
104 87
104 92
104 94
104 96
104 97
104 99
104 100
104 102
105 7
105 8
105 20
105 21
105 27
105 43
105 47
105 64
105 85
105 89
105 102
106 9
106 13
106 18
106 25
106 29
106 48
106 62
106 86
107 9
107 19
107 57
107 86
108 13
108 19
108 52
108 61
108 77
108 86
108 95
109 1
109 29
109 44
109 51
109 63
109 72
109 74
109 77
109 86
109 92
109 93
110 19
110 25
110 51
110 57
110 60
110 61
110 65
110 76
110 86
111 23
111 30
111 40
111 43
111 46
111 49
111 58
111 60
111 66
111 95
111 98
112 31
112 34
112 61
112 65
112 84
112 104
112 107
113 39
113 50
113 63
113 73
113 74
114 1
114 34
114 50
114 62
114 67
114 111
114 113
115 7
115 39
115 61
115 63
115 72
115 74
115 79
115 101
115 104
116 28
116 36
116 82
117 6
117 24
117 30
117 36
117 49
117 59
117 70
117 83
117 88
117 114
118 4
118 10
118 11
118 12
118 16
118 17
118 24
118 35
118 36
118 64
118 70
118 71
118 80
118 81
118 87
118 94
118 102
118 109
118 117
119 10
119 14
119 16
119 20
119 23
119 24
119 32
119 46
119 52
119 73
119 88
119 90
119 100
119 112
120 15
120 29
120 31
120 34
120 47
120 68
120 72
120 73
120 74
120 86
120 88
120 117
121 9
121 20
121 47
121 51
121 59
121 62
121 75
121 77
121 85
121 103
121 105
121 117
122 8
122 17
122 28
122 29
122 47
122 51
122 53
122 55
122 57
122 61
122 63
122 73
122 75
122 84
123 3
123 12
123 17
123 27
123 28
123 30
123 32
123 40
123 43
123 46
123 52
123 83
123 92
123 95
123 97
123 121
124 1
124 4
124 22
124 29
124 39
124 57
124 62
124 72
124 73
124 77
124 78
124 84
124 89
125 13
125 55
125 65
125 67
125 82
125 92
125 103
125 109
125 119
126 7
126 17
126 23
126 24
126 32
126 56
126 73
126 88
126 89
126 96
126 97
126 114
126 119
127 9
127 19
127 29
127 31
127 42
127 45
127 54
127 86
127 98
127 117
128 13
128 15
128 51
128 55
128 57
128 75
128 86
128 91
128 111
128 123
129 7
129 20
129 43
129 70
129 72
129 90
129 96
129 101
129 108
129 110
129 120
129 128
130 15
130 74
130 78
130 84
130 85
130 104
130 123
130 129
131 2
131 3
131 13
131 21
131 27
131 42
131 43
131 89
131 97
131 108
131 113
131 121
132 23
132 24
132 27
132 37
132 38
132 49
132 52
132 54
132 58
132 67
132 70
132 71
132 95
132 98
132 103
132 107
132 115
132 121
133 9
133 22
133 28
133 31
133 39
133 49
133 65
133 67
133 81
133 82
133 85
133 93
133 104
133 111
133 119
134 33
134 44
134 53
134 62
134 70
134 74
134 84
134 132
135 3
135 6
135 32
135 40
135 49
135 54
135 65
135 66
135 89
135 108
135 109
135 113
135 120
135 128
136 1
136 18
136 29
136 42
136 44
136 47
136 67
136 84
136 85
136 106
136 118
136 132
137 12
137 23
137 32
137 34
137 79
137 89
137 136
138 1
138 13
138 39
138 45
138 50
138 64
138 82
138 84
138 101
138 104
138 117
138 118
138 119
139 12
139 15
139 63
139 66
139 75
139 78
139 85
139 86
139 118
139 132
140 10
140 21
140 35
140 58
140 76
140 79
140 82
140 91
140 110
140 133
140 136
141 28
141 49
141 60
141 71
141 97
141 100
141 102
141 110
141 116
141 122
141 123
141 124
141 127
141 134
142 7
142 10
142 11
142 12
142 15
142 18
142 26
142 33
142 44
142 52
142 54
142 66
142 84
142 92
142 94
142 110
142 112
143 11
143 19
143 29
143 34
143 45
143 51
143 55
143 57
143 58
143 67
143 104
143 137
144 5
144 8
144 32
144 35
144 36
144 60
144 71
144 97
144 100
144 107
144 122
144 124
144 127
144 143
145 2
145 15
145 22
145 30
145 39
145 51
145 55
145 85
145 86
145 131
146 1
146 5
146 7
146 12
146 17
146 18
146 33
146 74
146 80
146 106
146 120
146 124
146 138
147 10
147 17
147 23
147 30
147 37
147 43
147 46
147 64
147 69
147 70
147 94
147 113
147 114
147 115
147 125
148 1
148 29
148 45
148 57
148 63
148 86
148 87
148 94
148 105
148 118
148 123
148 135
148 140
148 141
148 144
149 3
149 7
149 11
149 18
149 27
149 36
149 43
149 66
149 70
149 115
149 117
149 118
149 120
149 122
149 124
149 127
149 139
150 19
150 44
150 45
150 57
150 73
150 77
150 111
150 129
150 130
150 135
151 2
151 17
151 24
151 26
151 38
151 52
151 53
151 58
151 59
151 80
151 88
151 89
151 93
151 94
151 96
151 97
151 100
151 106
151 120
151 122
151 136
151 138
151 150
152 1
152 4
152 6
152 18
152 40
152 49
152 71
152 74
152 79
152 95
152 98
152 99
152 116
152 130
152 138
152 143
152 146
153 1
153 22
153 25
153 55
153 62
153 72
153 75
153 77
153 100
153 105
153 131
153 135
153 149
154 8
154 56
154 58
154 60
154 88
154 112
154 116
154 130
154 138
154 144
155 3
155 7
155 18
155 32
155 37
155 54
155 64
155 81
155 83
155 91
155 98
155 114
155 115
155 124
155 147
155 148
156 4
156 14
156 16
156 18
156 21
156 33
156 37
156 58
156 69
156 76
156 89
156 111
156 114
156 120
156 122
156 128
156 136
156 139
157 15
157 22
157 29
157 38
157 48
157 51
157 61
157 75
157 84
157 102
157 149
157 155
158 10
158 17
158 23
158 30
158 48
158 49
158 56
158 64
158 71
158 75
158 76
158 83
158 95
158 113
158 114
158 116
158 124
158 128
158 150
159 28
159 31
159 36
159 44
159 48
159 50
159 103
159 104
159 116
159 142
159 151
159 156
160 6
160 7
160 8
160 60
160 67
160 68
160 69
160 81
160 87
160 96
160 100
160 102
160 103
160 106
160 107
160 109
160 113
160 116
160 120
160 122
160 124
160 132
160 157
161 7
161 11
161 21
161 32
161 49
161 54
161 60
161 71
161 81
161 82
161 97
161 108
161 109
161 130
161 134
161 139
161 140
162 5
162 7
162 12
162 17
162 24
162 26
162 27
162 46
162 49
162 56
162 65
162 76
162 94
162 96
162 100
162 135
162 136
162 138
162 145
162 153
163 34
163 42
163 47
163 48
163 53
163 55
163 67
163 111
163 119
163 130
163 140
163 150
163 151
163 152
163 154
163 155
163 156
163 158
163 162
164 3
164 6
164 24
164 26
164 32
164 33
164 52
164 54
164 62
164 76
164 78
164 81
164 87
164 92
164 98
164 108
164 109
164 116
164 121
164 134
164 150
165 2
165 11
165 27
165 49
165 60
165 66
165 68
165 89
165 91
165 95
165 106
165 111
165 134
165 150
165 156
166 9
166 10
166 15
166 29
166 32
166 51
166 53
166 55
166 57
166 61
166 86
166 111
166 126
166 129
166 132
166 140
166 141
166 144
166 149
166 156
167 11
167 18
167 27
167 34
167 64
167 70
167 87
167 90
167 91
167 96
167 106
167 107
167 108
167 122
167 124
167 130
167 137
167 148
167 153
168 2
168 7
168 9
168 32
168 35
168 41
168 49
168 70
168 91
168 106
168 109
168 122
168 130
169 8
169 14
169 18
169 27
169 53
169 64
169 81
169 87
169 91
169 93
169 96
169 102
169 106
169 107
169 121
169 124
169 143
169 150
169 151
170 1
170 29
170 34
170 41
170 44
170 62
170 63
170 77
170 84
170 85
170 93
170 100
170 103
170 104
170 117
170 132
170 147
170 151
170 153
170 154
170 155
170 158
171 6
171 20
171 26
171 52
171 65
171 92
171 94
171 95
171 98
171 112
171 127
171 134
171 135
171 162
172 3
172 8
172 21
172 27
172 30
172 32
172 35
172 46
172 52
172 55
172 57
172 76
172 88
172 91
172 94
172 122
172 124
172 130
172 136
172 138
173 28
173 29
173 44
173 64
173 65
173 85
173 86
173 103
173 131
173 138
173 140
173 160
174 3
174 5
174 7
174 18
174 21
174 29
174 60
174 68
174 80
174 81
174 89
174 100
174 104
174 106
174 115
174 116
174 124
174 127
174 148
174 150
174 166
175 37
175 44
175 55
175 65
175 67
175 71
175 72
175 85
175 101
175 161
175 162
175 174
176 9
176 19
176 39
176 61
176 62
176 67
176 73
176 85
176 86
176 103
176 107
176 112
176 141
176 154
176 156
176 167
177 7
177 8
177 27
177 35
177 40
177 60
177 62
177 71
177 78
177 80
177 90
177 102
177 127
177 134
177 164
177 176
178 2
178 3
178 4
178 5
178 21
178 52
178 54
178 81
178 83
178 120
178 138
178 144
178 154
178 173
179 3
179 50
179 67
179 72
179 80
179 132
179 137
179 142
179 152
180 4
180 5
180 16
180 18
180 21
180 24
180 29
180 33
180 38
180 58
180 76
180 81
180 90
180 91
180 94
180 104
180 116
180 121
180 127
180 174
181 2
181 6
181 7
181 9
181 12
181 21
181 24
181 41
181 52
181 87
181 88
181 98
181 125
181 128
181 134
181 138
181 159
181 166
181 168
181 170
182 2
182 3
182 8
182 22
182 35
182 40
182 43
182 49
182 63
182 66
182 69
182 71
182 77
182 81
182 90
182 96
182 120
182 127
182 128
182 130
182 143
182 157
182 166
183 4
183 8
183 10
183 12
183 23
183 30
183 35
183 37
183 60
183 72
183 79
183 90
183 92
183 97
183 100
183 101
183 107
183 110
183 116
183 129
183 138
183 153
183 159
183 163
183 170
184 8
184 26
184 34
184 37
184 38
184 49
184 58
184 60
184 88
184 91
184 95
184 97
184 114
184 137
184 148
184 150
184 167
184 175
185 26
185 65
185 75
185 78
185 90
185 93
185 111
185 137
185 160
185 167
185 172
185 174
185 177
185 183
186 1
186 9
186 22
186 28
186 34
186 39
186 48
186 53
186 63
186 84
186 91
186 104
186 128
186 132
186 146
186 152
186 155
186 158
186 164
186 172
186 180
186 181
187 18
187 23
187 37
187 48
187 64
187 71
187 75
187 79
187 92
187 107
187 112
187 121
187 130
187 136
187 138
187 153
187 158
187 185
187 186
188 31
188 39
188 44
188 51
188 55
188 63
188 67
188 73
188 74
188 82
188 103
188 105
188 111
188 113
188 114
188 129
188 132
188 135
188 142
188 146
188 147
188 149
188 151
188 165
188 172
188 174
188 183
188 184
189 8
189 10
189 28
189 30
189 37
189 38
189 54
189 87
189 89
189 92
189 94
189 99
189 120
189 123
189 138
189 141
189 159
189 186
190 3
190 7
190 11
190 17
190 21
190 38
190 40
190 56
190 86
190 96
190 107
190 108
190 109
190 112
190 113
190 128
190 133
190 138
190 139
190 150
190 175
190 179
191 4
191 6
191 30
191 33
191 46
191 56
191 59
191 68
191 69
191 73
191 79
191 83
191 87
191 92
191 94
191 97
191 98
191 99
191 110
191 119
191 126
191 157
191 173
191 185
191 186
192 10
192 12
192 24
192 33
192 43
192 46
192 52
192 64
192 70
192 71
192 83
192 86
192 90
192 91
192 92
192 99
192 113
192 130
192 150
192 157
192 188
192 190
193 1
193 23
193 41
193 67
193 73
193 93
193 111
193 126
193 140
193 149
193 160
193 171
193 181
193 183
194 13
194 19
194 23
194 44
194 50
194 51
194 53
194 73
194 74
194 75
194 131
194 149
194 174
194 177
194 181
194 189
194 193
195 9
195 13
195 22
195 25
195 28
195 39
195 40
195 42
195 55
195 69
195 77
195 101
195 117
195 119
195 123
195 140
195 151
195 155
195 156
195 158
195 180
196 2
196 16
196 21
196 35
196 80
196 97
196 113
196 125
196 143
196 147
196 148
196 155
196 166
196 175
196 185
196 188
197 5
197 10
197 11
197 24
197 54
197 59
197 64
197 66
197 94
197 98
197 112
197 113
197 130
197 134
197 136
197 138
197 147
197 153
197 155
197 163
197 170
197 193
197 196
198 2
198 3
198 13
198 17
198 26
198 30
198 33
198 38
198 42
198 60
198 66
198 68
198 89
198 95
198 98
198 112
198 115
198 122
198 127
198 130
198 131
198 163
198 175
198 195
199 3
199 4
199 10
199 56
199 66
199 76
199 86
199 89
199 96
199 106
199 113
199 127
199 179
199 186
199 190
199 192
200 2
200 4
200 5
200 47
200 56
200 85
200 98
200 105
200 106
200 109
200 124
200 130
200 163
200 176
200 186
