%%MatrixMarket matrix coordinate pattern symmetric
%
% This is a complement of the original instance 
%
200 200 1990
5 2
7 4
8 7
10 4
10 8
11 1
12 5
12 11
13 2
13 8
13 9
15 8
15 12
16 2
16 7
16 9
18 3
18 12
19 1
19 2
19 13
19 14
22 19
23 1
23 12
23 17
24 1
24 8
24 12
24 17
24 22
25 5
25 16
25 24
26 1
26 4
26 11
26 22
26 25
27 10
27 13
27 19
27 23
27 25
29 1
29 20
29 22
29 27
30 1
31 8
31 9
31 28
32 9
32 10
33 13
33 19
33 20
34 4
34 5
34 16
35 16
35 26
36 2
36 3
36 8
36 14
37 4
38 3
38 6
38 8
38 14
38 15
39 11
39 35
39 36
40 4
40 28
40 39
41 1
41 5
41 13
41 31
41 32
41 38
41 40
42 35
42 36
42 39
44 1
44 3
44 12
44 33
44 43
45 2
45 10
45 19
45 26
45 40
46 8
46 14
46 17
46 27
46 41
47 28
47 39
48 7
48 21
48 23
48 38
49 1
49 3
49 11
49 26
50 5
50 10
50 15
50 16
50 17
50 23
50 24
50 29
50 32
51 19
51 30
52 19
52 43
52 46
52 47
53 5
53 9
53 24
53 37
53 44
53 49
54 15
54 23
54 35
54 37
54 39
54 42
54 44
55 28
55 41
55 48
55 52
56 8
56 24
56 34
56 41
56 43
56 45
57 5
57 6
57 7
57 16
57 24
57 49
58 4
58 34
58 36
59 8
59 14
59 17
59 27
59 37
59 50
60 11
60 23
60 35
60 39
60 42
60 54
60 56
60 59
61 6
61 38
61 57
62 11
62 17
62 37
62 38
62 47
62 50
63 4
63 24
63 26
63 32
63 34
63 56
63 58
63 59
64 8
64 12
64 17
64 31
64 33
64 39
64 58
64 61
65 3
65 4
65 6
65 15
65 28
65 38
65 58
65 62
66 33
66 41
66 53
66 60
67 10
67 15
67 21
67 23
67 26
67 38
67 48
68 10
68 18
68 19
68 31
68 36
69 2
69 7
69 15
69 40
69 45
69 47
69 66
70 5
70 11
70 17
70 24
70 29
70 50
70 62
71 1
71 2
71 8
71 12
71 14
71 22
71 35
71 42
71 43
71 44
71 52
71 63
71 67
72 4
72 14
72 21
72 35
72 40
72 50
72 53
72 67
73 2
73 16
73 26
73 45
73 46
73 65
73 69
74 6
74 10
74 22
74 32
74 41
74 45
74 52
74 54
74 70
75 7
75 14
75 37
76 3
76 11
76 20
76 26
76 41
76 49
76 67
77 23
77 24
77 26
77 56
77 68
77 71
78 6
78 16
78 29
78 31
78 36
78 57
78 61
78 64
78 65
79 11
79 17
79 20
79 22
79 26
79 28
79 42
79 49
79 67
79 73
79 75
79 76
80 16
80 32
80 38
80 51
80 56
81 8
81 24
81 29
81 37
81 44
81 56
81 72
81 79
82 36
82 37
82 40
82 49
82 68
82 72
82 77
83 23
83 26
83 32
83 40
83 44
83 79
84 14
84 20
84 41
84 60
84 62
84 66
84 81
85 8
85 12
85 33
85 36
85 52
85 54
85 60
85 69
85 81
86 43
86 52
86 72
86 85
87 1
87 2
87 7
87 12
87 16
87 39
87 41
87 53
87 69
87 70
87 77
88 13
88 23
88 24
88 26
88 29
88 32
88 83
89 1
89 6
89 13
89 19
89 35
89 45
89 51
89 52
89 62
89 63
89 70
89 77
89 81
89 82
90 7
90 23
90 37
90 51
90 65
90 80
90 87
91 14
91 22
91 23
91 28
91 42
91 63
91 75
92 7
92 11
92 12
92 19
92 65
92 74
92 87
93 5
93 17
93 29
93 50
93 59
93 62
93 70
93 76
94 2
94 3
94 9
94 17
94 21
94 23
94 35
94 42
94 52
94 53
94 88
94 91
95 6
95 19
95 31
95 44
95 46
95 57
95 59
95 61
95 64
95 78
96 22
96 29
96 32
96 46
96 94
97 15
97 19
97 28
97 30
97 44
97 79
97 87
98 8
98 14
98 20
98 21
98 34
98 52
98 53
98 63
98 68
98 73
98 80
98 81
98 95
99 8
99 15
99 29
99 36
99 37
99 40
99 74
99 81
99 85
99 87
99 91
100 3
100 5
100 11
100 31
100 46
100 66
100 72
100 84
101 21
101 52
101 55
101 70
101 90
101 92
101 95
102 2
102 5
102 9
102 12
102 33
102 35
102 39
102 51
102 52
102 57
102 62
102 63
102 69
102 82
102 86
102 93
102 95
103 8
103 12
103 34
103 41
103 45
103 58
103 83
103 93
104 1
104 2
104 6
104 17
104 21
104 35
104 39
104 41
104 47
104 63
104 67
104 80
104 100
105 3
105 6
105 9
105 18
105 22
105 28
105 33
105 54
105 63
105 73
105 77
105 96
106 3
106 4
106 8
106 39
106 47
106 50
106 67
106 73
106 78
106 81
106 83
106 97
106 100
106 104
107 23
107 26
107 29
107 37
107 40
107 51
107 64
107 80
107 84
107 90
107 98
107 105
108 8
108 12
108 20
108 35
108 41
108 45
108 51
108 53
108 60
108 68
108 75
108 86
108 92
108 99
109 10
109 13
109 14
109 44
109 65
109 75
109 89
109 105
109 106
110 4
110 9
110 14
110 20
110 30
110 45
110 48
110 53
110 60
110 67
110 75
110 86
110 99
111 3
111 6
111 15
111 22
111 35
111 38
111 41
111 58
111 65
111 69
111 73
111 88
112 2
112 21
112 34
112 39
112 40
112 50
112 51
112 57
112 63
112 72
112 73
112 75
112 80
112 88
112 95
113 1
113 21
113 25
113 46
113 69
113 73
113 77
113 92
113 99
113 109
114 14
114 17
114 35
114 40
114 48
114 68
114 72
114 112
115 18
115 22
115 40
115 46
115 49
115 71
115 72
115 91
115 96
115 103
115 106
115 108
116 15
116 19
116 40
116 44
116 49
116 56
116 71
116 79
116 83
116 84
116 88
117 6
117 22
117 24
117 42
117 51
117 56
117 61
117 73
117 97
117 99
117 109
117 115
118 14
118 30
118 39
118 43
118 51
118 58
118 60
118 61
118 82
118 88
118 95
118 100
118 110
118 115
119 29
119 42
119 48
119 82
119 83
119 86
119 95
119 96
119 99
120 13
120 32
120 43
120 52
120 55
120 64
120 71
120 84
120 86
120 91
120 103
121 14
121 20
121 22
121 27
121 28
121 33
121 48
121 53
121 54
121 55
121 58
121 62
121 67
121 70
121 97
121 100
121 101
122 1
122 18
122 26
122 41
122 44
122 46
122 49
122 72
122 84
122 85
122 113
122 119
123 4
123 9
123 20
123 27
123 40
123 45
123 54
123 60
123 61
123 62
123 68
123 72
123 78
123 83
123 112
123 114
123 120
124 14
124 25
124 34
124 39
124 61
124 73
124 88
124 90
124 92
124 93
125 1
125 5
125 18
125 26
125 37
125 40
125 41
125 47
125 74
125 94
125 101
125 112
125 121
125 122
125 123
125 124
126 12
126 22
126 43
126 52
126 54
126 62
126 66
126 84
126 86
126 125
127 11
127 14
127 16
127 30
127 47
127 49
127 59
127 75
127 84
127 89
127 101
127 106
127 109
127 113
127 119
127 126
128 8
128 12
128 13
128 19
128 43
128 58
128 80
128 82
128 89
128 125
129 8
129 21
129 22
129 28
129 42
129 43
129 46
129 57
129 60
129 67
129 78
129 86
129 99
129 113
129 115
129 116
129 122
129 125
130 2
130 12
130 14
130 27
130 34
130 35
130 41
130 44
130 69
130 71
130 80
130 92
130 99
130 100
130 109
130 122
130 127
131 4
131 28
131 36
131 39
131 58
131 61
131 69
131 82
131 83
131 85
132 25
132 39
132 45
132 48
132 58
132 62
132 77
132 82
132 86
132 95
132 97
132 98
133 7
133 9
133 13
133 37
133 47
133 53
133 56
133 71
133 94
133 104
133 106
133 112
133 113
133 129
134 12
134 29
134 58
134 67
134 75
134 80
134 86
134 95
134 99
134 109
134 116
134 119
134 120
135 8
135 14
135 18
135 52
135 61
135 63
135 67
135 82
135 100
135 105
136 3
136 6
136 9
136 24
136 39
136 54
136 56
136 61
136 67
136 69
136 117
137 3
137 11
137 26
137 47
137 55
137 59
137 74
137 100
137 110
137 114
137 118
137 131
138 2
138 3
138 8
138 17
138 48
138 58
138 62
138 67
138 73
138 90
138 98
138 109
138 115
138 116
138 120
138 132
139 1
139 4
139 8
139 20
139 28
139 35
139 51
139 61
139 62
139 67
139 75
139 83
139 92
139 99
139 100
139 124
139 133
139 137
140 1
140 8
140 37
140 48
140 58
140 59
140 61
140 78
140 92
140 96
140 109
140 137
141 14
141 20
141 21
141 33
141 50
141 54
141 75
141 80
141 108
141 122
141 133
142 5
142 7
142 30
142 59
142 79
142 83
142 88
142 108
142 112
142 116
142 123
142 128
143 1
143 11
143 30
143 31
143 41
143 59
143 84
143 91
143 108
143 122
143 125
143 135
143 140
144 6
144 21
144 28
144 41
144 51
144 55
144 57
144 69
144 78
144 101
144 121
144 133
145 3
145 11
145 15
145 32
145 65
145 100
145 101
145 102
145 113
145 123
145 137
146 25
146 27
146 29
146 32
146 36
146 37
146 44
146 46
146 55
146 56
146 64
146 71
146 72
146 84
146 85
146 89
146 114
146 124
146 129
146 132
146 144
147 19
147 28
147 36
147 97
147 103
147 110
147 112
147 114
147 144
148 6
148 12
148 33
148 35
148 43
148 62
148 69
148 70
148 82
148 86
148 92
148 108
148 115
148 141
148 145
149 1
149 8
149 14
149 18
149 22
149 25
149 52
149 54
149 61
149 67
149 88
149 92
149 97
149 105
149 107
149 115
149 135
149 145
149 146
149 147
150 28
150 33
150 34
150 61
150 62
150 70
150 77
150 92
150 98
150 99
150 107
150 132
150 138
150 142
150 143
150 147
151 5
151 13
151 18
151 24
151 28
151 56
151 64
151 71
151 74
151 84
151 89
151 91
151 97
151 101
151 124
151 132
151 141
151 147
152 12
152 27
152 35
152 45
152 81
152 82
152 86
152 108
152 122
152 125
152 141
152 143
152 148
153 7
153 20
153 24
153 26
153 32
153 33
153 38
153 72
153 76
153 87
153 124
153 129
153 131
154 16
154 21
154 23
154 30
154 32
154 36
154 40
154 48
154 65
154 67
154 87
154 105
154 110
154 111
154 117
154 121
154 124
154 131
154 132
154 136
154 138
154 150
155 12
155 40
155 49
155 89
155 92
155 94
155 108
155 132
155 138
155 139
155 149
156 10
156 13
156 16
156 21
156 30
156 48
156 59
156 65
156 67
156 72
156 87
156 89
156 101
156 102
156 105
156 110
156 118
156 131
156 134
156 154
157 8
157 12
157 20
157 21
157 27
157 57
157 62
157 69
157 80
157 93
157 100
157 109
157 116
157 124
157 125
157 139
157 145
157 147
157 155
158 12
158 30
158 38
158 56
158 65
158 71
158 87
158 92
158 111
158 112
158 134
158 138
158 140
158 149
158 152
158 155
159 11
159 12
159 13
159 24
159 36
159 38
159 56
159 91
159 92
159 112
159 114
159 124
159 128
159 136
159 152
159 155
159 158
160 33
160 36
160 43
160 48
160 51
160 80
160 82
160 85
160 90
160 97
160 131
160 147
161 1
161 8
161 20
161 29
161 51
161 67
161 93
161 115
161 116
161 119
161 134
161 143
161 158
162 9
162 43
162 60
162 70
162 81
162 82
162 90
162 99
162 103
162 154
163 14
163 36
163 37
163 47
163 64
163 75
163 101
163 109
163 113
163 114
163 123
163 127
163 131
163 150
164 28
164 32
164 44
164 66
164 72
164 85
164 97
164 103
164 108
164 111
164 119
164 128
164 136
164 138
164 147
164 151
165 3
165 14
165 27
165 35
165 43
165 66
165 84
165 95
165 109
165 115
165 120
165 126
165 153
166 43
166 45
166 55
166 62
166 77
166 81
166 93
166 99
166 101
166 121
166 125
166 127
166 133
166 137
166 144
166 147
166 151
167 5
167 18
167 32
167 37
167 44
167 47
167 64
167 68
167 77
167 82
167 111
167 118
167 121
168 7
168 20
168 29
168 33
168 36
168 40
168 49
168 55
168 76
168 87
168 101
168 110
168 126
168 131
168 153
168 161
168 162
168 165
169 3
169 4
169 5
169 6
169 35
169 42
169 57
169 60
169 63
169 68
169 77
169 80
169 92
169 100
169 102
169 122
169 143
169 145
170 5
170 7
170 15
170 16
170 25
170 27
170 71
170 85
170 87
170 89
170 98
170 102
170 113
170 132
170 134
170 136
170 138
170 139
170 146
170 161
171 7
171 8
171 44
171 47
171 72
171 81
171 99
171 113
171 121
171 123
171 128
171 132
171 140
171 148
171 149
171 165
171 169
172 4
172 5
172 7
172 13
172 30
172 34
172 44
172 58
172 59
172 63
172 72
172 111
172 119
172 123
172 131
172 132
172 144
172 161
172 162
172 165
173 4
173 28
173 34
173 42
173 46
173 48
173 61
173 62
173 81
173 90
173 113
173 129
173 156
173 163
173 170
174 2
174 31
174 34
174 41
174 60
174 61
174 64
174 67
174 69
174 77
174 81
174 86
174 90
174 92
174 97
174 151
174 153
175 7
175 29
175 43
175 49
175 52
175 86
175 94
175 118
175 120
175 126
175 129
175 131
175 134
175 152
175 169
176 1
176 8
176 35
176 39
176 42
176 44
176 52
176 57
176 71
176 81
176 82
176 90
176 107
176 120
176 130
176 142
176 147
176 168
177 19
177 22
177 56
177 96
177 108
177 115
177 123
177 134
177 144
177 152
177 157
177 166
178 22
178 26
178 40
178 47
178 71
178 76
178 85
178 89
178 96
178 103
178 106
178 110
178 113
178 115
178 124
178 129
178 132
178 177
179 9
179 34
179 37
179 39
179 42
179 48
179 50
179 51
179 53
179 54
179 59
179 60
179 75
179 80
179 81
179 140
179 145
179 167
180 9
180 12
180 20
180 25
180 83
180 103
180 107
180 116
180 127
180 142
180 143
180 146
180 147
180 156
180 162
180 171
181 5
181 20
181 26
181 33
181 47
181 59
181 66
181 74
181 76
181 91
181 103
181 105
181 129
181 134
181 135
181 141
181 148
181 153
181 162
181 168
181 176
182 25
182 26
182 27
182 36
182 40
182 44
182 49
182 59
182 85
182 98
182 102
182 105
182 113
182 117
182 119
182 134
182 146
182 148
182 152
182 162
182 166
182 170
182 179
183 3
183 9
183 23
183 28
183 50
183 53
183 54
183 60
183 82
183 83
183 91
183 92
183 94
183 116
183 120
183 127
183 133
183 146
183 147
183 153
183 154
183 155
183 163
183 168
183 177
183 181
183 182
184 3
184 10
184 21
184 28
184 32
184 39
184 60
184 74
184 75
184 163
184 164
184 167
184 168
185 6
185 7
185 16
185 27
185 33
185 42
185 60
185 75
185 87
185 99
185 100
185 115
185 116
185 125
185 159
185 163
186 7
186 10
186 24
186 32
186 37
186 46
186 59
186 83
186 87
186 88
186 113
186 116
186 131
186 142
186 152
186 160
186 162
186 169
187 8
187 15
187 23
187 36
187 46
187 47
187 74
187 79
187 81
187 99
187 103
187 110
187 112
187 113
187 123
187 165
187 171
187 184
187 185
188 1
188 17
188 52
188 54
188 61
188 63
188 73
188 83
188 93
188 96
188 103
188 122
188 125
188 133
188 145
188 156
188 162
188 168
188 180
189 4
189 12
189 17
189 30
189 43
189 63
189 70
189 73
189 81
189 88
189 90
189 95
189 97
189 110
189 115
189 116
189 118
189 145
189 171
189 182
190 31
190 36
190 37
190 64
190 68
190 77
190 82
190 84
190 121
190 126
190 128
190 150
190 166
190 167
190 169
190 176
190 188
191 4
191 27
191 35
191 47
191 58
191 78
191 81
191 104
191 106
191 151
191 170
191 175
191 178
191 187
192 9
192 24
192 31
192 36
192 53
192 55
192 64
192 66
192 72
192 98
192 104
192 106
192 110
192 118
192 121
192 123
192 124
192 133
192 135
192 136
192 148
192 161
192 166
192 184
192 188
193 5
193 8
193 21
193 48
193 58
193 60
193 70
193 80
193 92
193 97
193 102
193 120
193 127
193 159
193 169
193 172
193 187
193 192
194 10
194 15
194 23
194 51
194 80
194 90
194 94
194 98
194 106
194 107
194 117
194 161
194 174
194 188
194 189
195 6
195 39
195 62
195 63
195 69
195 70
195 77
195 83
195 88
195 124
195 137
195 139
195 154
195 155
195 157
195 163
195 167
195 168
195 171
195 175
196 9
196 12
196 14
196 18
196 21
196 48
196 61
196 82
196 88
196 90
196 105
196 109
196 122
196 135
196 137
196 143
196 149
196 156
196 170
196 192
197 2
197 7
197 23
197 45
197 56
197 69
197 71
197 72
197 73
197 123
197 135
197 140
197 152
197 179
197 180
197 191
198 9
198 10
198 23
198 30
198 38
198 53
198 79
198 91
198 104
198 123
198 133
198 162
198 165
198 174
198 176
198 183
198 185
198 192
199 1
199 9
199 12
199 31
199 33
199 39
199 42
199 54
199 57
199 64
199 75
199 83
199 86
199 99
199 115
199 127
199 163
199 167
199 170
199 171
199 174
199 175
199 186
199 192
200 3
200 13
200 30
200 40
200 44
200 65
200 66
200 98
200 100
200 102
200 108
200 114
200 118
200 128
200 132
200 137
200 140
200 145
200 165
200 199
