%%MatrixMarket matrix coordinate pattern symmetric
%
% This is a complement of the original instance 
%
200 200 5970
5 1
7 1
7 3
7 6
8 5
9 1
9 5
9 7
10 5
10 6
10 7
11 5
11 7
11 8
12 4
13 7
14 6
14 9
14 10
14 12
15 3
15 5
15 7
15 14
16 2
16 4
16 8
16 10
16 11
16 13
17 2
17 7
18 5
18 7
18 14
19 2
19 4
19 6
19 8
19 11
19 15
19 18
20 5
20 7
20 14
20 19
21 4
21 5
21 7
21 12
21 19
22 1
22 3
22 4
22 9
22 12
22 15
22 16
22 17
22 18
22 20
22 21
23 14
23 16
23 18
23 19
23 22
24 5
24 7
24 14
24 16
24 18
24 19
24 23
25 3
25 4
25 6
25 8
25 10
25 12
25 19
25 20
25 21
25 24
26 1
26 2
26 3
26 8
26 9
26 10
26 11
26 12
26 20
26 24
27 6
27 7
27 10
27 19
27 22
27 25
28 4
28 5
28 6
28 8
28 10
28 12
28 13
28 15
28 17
28 18
28 21
28 23
28 27
29 4
29 5
29 7
29 12
29 14
29 19
29 21
29 26
30 5
30 7
30 16
30 18
30 22
30 23
30 24
31 1
31 7
31 9
31 14
31 22
31 25
31 28
32 7
32 14
32 16
32 20
32 26
33 1
33 2
33 3
33 4
33 5
33 6
33 10
33 11
33 12
33 13
33 18
33 20
33 27
33 28
33 32
34 2
34 7
34 16
34 17
34 19
34 28
35 1
35 9
35 14
35 16
35 19
35 25
35 26
35 31
35 33
36 5
36 16
36 18
36 19
36 23
36 24
36 25
36 26
36 28
36 30
37 1
37 3
37 8
37 9
37 12
37 16
37 17
37 21
37 22
37 24
37 27
37 29
37 30
37 35
37 36
38 1
38 6
38 7
38 8
38 9
38 10
38 13
38 17
38 18
38 20
38 24
38 29
38 35
38 36
39 6
39 10
39 16
39 22
39 26
39 27
39 28
39 33
39 37
40 16
40 19
40 22
40 25
41 1
41 3
41 4
41 6
41 7
41 8
41 10
41 11
41 13
41 15
41 17
41 18
41 20
41 21
41 23
41 24
41 30
41 31
41 32
41 34
41 35
41 38
41 39
41 40
42 5
42 6
42 10
42 16
42 19
42 22
42 25
42 27
42 37
42 38
42 39
43 2
43 5
43 7
43 16
43 17
43 19
43 26
43 28
43 33
43 34
43 37
43 38
44 4
44 8
44 9
44 15
44 17
44 19
44 23
44 24
44 25
44 27
44 30
44 31
44 32
44 34
44 35
44 39
44 40
44 42
44 43
45 3
45 4
45 6
45 8
45 9
45 11
45 12
45 13
45 17
45 20
45 21
45 23
45 24
45 26
45 29
45 30
45 34
45 39
45 40
45 42
45 43
46 14
46 16
46 22
46 25
46 26
46 33
46 37
46 38
46 44
47 5
47 7
47 16
47 19
47 25
47 26
47 38
47 45
48 3
48 5
48 15
48 16
48 33
48 37
48 44
49 3
49 5
49 14
49 15
49 19
49 22
49 25
49 26
49 28
49 33
49 37
49 38
49 45
49 48
50 1
50 2
50 4
50 8
50 9
50 12
50 13
50 15
50 17
50 19
50 20
50 21
50 23
50 24
50 25
50 27
50 32
50 34
50 39
50 44
50 46
50 48
50 49
51 5
51 7
51 16
51 19
51 20
51 22
51 25
51 28
51 32
51 33
51 38
51 45
52 8
52 11
52 14
52 19
52 22
52 25
52 38
52 41
52 44
52 50
53 1
53 4
53 6
53 9
53 10
53 15
53 17
53 18
53 19
53 20
53 21
53 23
53 24
53 25
53 29
53 32
53 34
53 35
53 36
53 42
53 44
53 46
53 49
53 50
53 52
54 7
54 14
54 19
54 22
54 26
54 28
54 33
54 38
54 40
54 41
54 44
54 53
55 14
55 16
55 22
55 26
55 28
55 40
55 41
55 44
55 50
55 53
55 54
56 2
56 5
56 17
56 22
56 25
56 26
56 34
56 37
56 41
56 43
56 53
57 3
57 5
57 14
57 15
57 16
57 25
57 26
57 28
57 33
57 37
57 38
57 41
57 44
57 45
57 48
57 49
57 50
57 53
58 7
58 16
58 26
58 28
58 40
58 54
58 55
59 6
59 9
59 14
59 17
59 20
59 21
59 24
59 27
59 31
59 32
59 34
59 36
59 39
59 40
59 47
59 52
59 55
59 56
59 57
59 58
60 3
60 7
60 15
60 16
60 22
60 25
60 26
60 28
60 37
60 38
60 45
60 48
60 49
60 50
60 53
60 57
61 7
61 13
61 16
61 26
61 33
61 37
61 38
61 44
61 45
61 53
61 59
62 1
62 2
62 3
62 4
62 5
62 6
62 8
62 10
62 12
62 13
62 15
62 17
62 18
62 20
62 23
62 28
62 33
62 35
62 40
62 42
62 43
62 46
62 47
62 51
62 57
62 60
62 61
63 5
63 16
63 26
63 28
63 33
63 37
63 38
63 40
63 41
63 53
63 54
63 55
63 58
63 59
64 4
64 9
64 10
64 12
64 15
64 16
64 20
64 22
64 24
64 27
64 31
64 32
64 36
64 37
64 40
64 42
64 47
64 54
64 56
64 57
64 58
64 60
64 61
64 63
65 1
65 3
65 5
65 6
65 8
65 9
65 13
65 15
65 17
65 18
65 20
65 24
65 27
65 28
65 29
65 30
65 33
65 34
65 35
65 40
65 46
65 48
65 49
65 54
65 57
65 60
65 61
65 62
66 5
66 7
66 13
66 14
66 16
66 22
66 25
66 33
66 38
66 44
66 45
66 50
66 53
66 61
67 3
67 5
67 7
67 15
67 19
67 25
67 26
67 28
67 37
67 38
67 41
67 44
67 48
67 49
67 57
67 59
67 60
68 5
68 7
68 8
68 11
68 16
68 19
68 22
68 28
68 33
68 38
68 41
68 44
68 50
68 52
68 62
68 65
69 3
69 4
69 5
69 6
69 9
69 10
69 12
69 17
69 18
69 20
69 21
69 23
69 28
69 29
69 32
69 33
69 35
69 39
69 42
69 47
69 48
69 49
69 51
69 54
69 55
69 58
69 60
69 61
69 62
69 65
69 67
70 5
70 7
70 22
70 28
70 33
70 38
70 41
70 45
70 47
70 50
70 59
70 62
70 69
71 5
71 7
71 14
71 18
71 19
71 23
71 24
71 28
71 30
71 36
71 41
71 45
71 62
71 64
71 65
72 13
72 16
72 28
72 33
72 37
72 38
72 41
72 44
72 50
72 53
72 59
72 61
72 62
72 65
72 66
72 69
73 5
73 18
73 22
73 23
73 24
73 25
73 26
73 30
73 36
73 37
73 38
73 41
73 45
73 50
73 59
73 65
73 69
73 71
74 2
74 3
74 4
74 9
74 12
74 13
74 15
74 20
74 21
74 23
74 24
74 26
74 27
74 29
74 30
74 32
74 36
74 39
74 40
74 42
74 45
74 46
74 47
74 49
74 51
74 54
74 55
74 58
74 63
74 66
74 67
74 68
74 71
74 73
75 5
75 7
75 16
75 19
75 22
75 26
75 28
75 33
75 37
75 38
75 44
75 45
75 47
75 62
75 64
75 70
75 74
76 14
76 16
76 26
76 28
76 38
76 41
76 44
76 45
76 47
76 62
76 64
76 65
76 69
76 70
76 74
76 75
77 5
77 7
77 16
77 19
77 20
77 28
77 32
77 33
77 37
77 38
77 41
77 45
77 51
77 59
77 62
77 65
77 69
78 1
78 2
78 4
78 6
78 7
78 8
78 10
78 12
78 13
78 21
78 23
78 24
78 27
78 29
78 31
78 34
78 35
78 36
78 38
78 41
78 42
78 48
78 49
78 54
78 57
78 58
78 60
78 61
78 63
78 66
78 71
78 72
78 73
78 77
79 5
79 7
79 13
79 14
79 22
79 25
79 33
79 37
79 38
79 45
79 53
79 61
79 62
79 64
79 66
79 69
79 72
79 74
79 78
80 14
80 22
80 33
80 37
80 38
80 40
80 54
80 55
80 58
80 62
80 63
80 65
80 69
80 74
81 4
81 7
81 12
81 19
81 21
81 22
81 26
81 28
81 29
81 33
81 37
81 38
81 41
81 44
81 45
81 50
81 59
81 65
81 74
82 1
82 8
82 9
82 11
82 16
82 17
82 18
82 20
82 21
82 22
82 30
82 31
82 32
82 34
82 35
82 36
82 37
82 39
82 42
82 46
82 51
82 52
82 54
82 64
82 66
82 68
82 70
82 71
82 76
82 79
82 80
82 81
83 6
83 10
83 16
83 22
83 25
83 27
83 28
83 33
83 37
83 38
83 39
83 41
83 42
83 45
83 50
83 59
83 65
83 74
83 78
84 13
84 14
84 19
84 22
84 25
84 26
84 28
84 33
84 41
84 44
84 45
84 50
84 61
84 62
84 66
84 69
84 72
84 74
84 79
85 4
85 5
85 7
85 12
85 16
85 19
85 21
85 22
85 25
85 29
85 33
85 41
85 45
85 59
85 62
85 64
85 65
85 74
85 81
85 82
86 1
86 2
86 4
86 6
86 8
86 9
86 10
86 11
86 12
86 13
86 15
86 17
86 23
86 24
86 26
86 31
86 36
86 39
86 42
86 43
86 45
86 46
86 48
86 49
86 52
86 55
86 61
86 67
86 70
86 71
86 72
86 74
86 76
86 80
86 81
86 83
86 85
87 1
87 5
87 9
87 14
87 16
87 25
87 28
87 31
87 33
87 35
87 37
87 44
87 50
87 59
87 78
87 86
88 5
88 7
88 16
88 25
88 28
88 33
88 37
88 44
88 45
88 46
88 53
88 59
88 64
88 69
88 78
88 82
88 86
89 5
89 8
89 11
89 14
89 16
89 22
89 25
89 26
89 28
89 33
89 38
89 44
89 45
89 50
89 52
89 53
89 59
89 62
89 68
89 69
89 74
89 82
89 86
90 1
90 2
90 6
90 11
90 12
90 13
90 14
90 15
90 21
90 23
90 29
90 32
90 34
90 36
90 39
90 42
90 43
90 48
90 49
90 51
90 52
90 56
90 57
90 58
90 59
90 60
90 66
90 67
90 68
90 71
90 72
90 73
90 75
90 79
90 83
90 84
90 85
90 89
91 1
91 3
91 4
91 6
91 8
91 10
91 11
91 12
91 13
91 14
91 15
91 17
91 20
91 21
91 23
91 29
91 30
91 32
91 35
91 36
91 39
91 43
91 48
91 49
91 52
91 55
91 56
91 59
91 60
91 63
91 66
91 70
91 73
91 81
91 83
91 85
91 88
91 90
92 5
92 7
92 13
92 14
92 16
92 19
92 22
92 25
92 28
92 33
92 37
92 44
92 45
92 50
92 53
92 59
92 61
92 64
92 65
92 66
92 69
92 72
92 74
92 78
92 79
92 84
93 4
93 6
93 9
93 11
93 15
93 18
93 20
93 26
93 30
93 35
93 36
93 40
93 43
93 45
93 46
93 47
93 49
93 51
93 52
93 54
93 55
93 57
93 60
93 61
93 63
93 66
93 67
93 71
93 73
93 74
93 75
93 80
93 81
93 85
93 86
93 88
93 89
93 92
94 2
94 5
94 14
94 17
94 19
94 26
94 33
94 34
94 43
94 45
94 50
94 53
94 56
94 65
94 78
94 82
94 90
94 91
95 1
95 2
95 4
95 7
95 8
95 11
95 13
95 21
95 23
95 27
95 29
95 30
95 34
95 36
95 38
95 39
95 40
95 41
95 42
95 43
95 47
95 51
95 52
95 54
95 56
95 57
95 60
95 61
95 63
95 66
95 67
95 68
95 70
95 71
95 72
95 76
95 77
95 78
95 80
95 81
95 83
95 84
95 85
95 88
95 92
95 94
96 5
96 7
96 14
96 16
96 25
96 26
96 28
96 33
96 37
96 46
96 53
96 59
96 64
96 65
96 69
96 74
96 82
96 88
96 93
96 95
97 5
97 7
97 8
97 11
97 14
97 16
97 19
97 22
97 25
97 26
97 33
97 38
97 41
97 52
97 53
97 59
97 64
97 65
97 68
97 74
97 78
97 86
97 89
97 90
97 91
97 93
98 1
98 3
98 4
98 6
98 9
98 10
98 13
98 14
98 15
98 17
98 18
98 24
98 30
98 32
98 42
98 43
98 47
98 49
98 51
98 54
98 55
98 56
98 58
98 59
98 63
98 66
98 67
98 68
98 70
98 71
98 72
98 73
98 76
98 77
98 80
98 81
98 83
98 84
98 85
98 87
98 88
98 90
98 91
98 94
98 97
99 5
99 6
99 10
99 19
99 25
99 26
99 27
99 28
99 33
99 38
99 39
99 41
99 42
99 44
99 45
99 50
99 62
99 64
99 65
99 78
99 83
99 86
99 90
99 91
99 95
100 4
100 5
100 12
100 16
100 19
100 21
100 22
100 28
100 29
100 33
100 38
100 45
100 59
100 74
100 78
100 81
100 85
100 90
100 95
101 1
101 3
101 6
101 8
101 9
101 10
101 11
101 12
101 13
101 14
101 15
101 17
101 18
101 21
101 27
101 30
101 31
101 32
101 34
101 35
101 40
101 43
101 48
101 49
101 51
101 54
101 55
101 56
101 57
101 58
101 59
101 63
101 67
101 70
101 71
101 73
101 77
101 80
101 81
101 83
101 85
101 87
101 88
101 90
101 91
101 92
101 96
101 98
101 100
102 1
102 2
102 3
102 6
102 9
102 10
102 11
102 12
102 13
102 15
102 19
102 20
102 21
102 23
102 24
102 25
102 27
102 30
102 31
102 34
102 39
102 40
102 42
102 44
102 48
102 49
102 50
102 53
102 55
102 56
102 57
102 60
102 61
102 66
102 68
102 70
102 72
102 73
102 76
102 77
102 80
102 84
102 88
102 94
102 97
102 99
102 100
103 3
103 15
103 16
103 26
103 28
103 38
103 41
103 48
103 49
103 57
103 60
103 62
103 67
103 69
103 78
103 90
103 91
103 93
103 95
103 98
103 101
103 102
104 5
104 7
104 14
104 16
104 19
104 20
104 22
104 25
104 28
104 32
104 33
104 44
104 45
104 51
104 53
104 59
104 62
104 64
104 65
104 74
104 77
104 86
104 90
104 95
104 98
104 101
105 2
105 3
105 4
105 9
105 10
105 11
105 12
105 13
105 15
105 19
105 20
105 23
105 24
105 25
105 29
105 30
105 39
105 40
105 44
105 46
105 48
105 49
105 50
105 51
105 53
105 56
105 63
105 67
105 68
105 70
105 71
105 72
105 73
105 76
105 77
105 85
105 87
105 89
105 96
105 97
105 102
105 103
105 104
106 1
106 3
106 6
106 11
106 12
106 15
106 16
106 18
106 21
106 22
106 23
106 24
106 30
106 31
106 35
106 36
106 37
106 39
106 42
106 43
106 46
106 47
106 48
106 54
106 57
106 60
106 61
106 63
106 64
106 67
106 68
106 72
106 73
106 75
106 77
106 79
106 81
106 82
106 83
106 84
106 94
106 97
106 100
106 103
107 1
107 3
107 6
107 9
107 11
107 15
107 18
107 20
107 21
107 23
107 26
107 27
107 31
107 32
107 34
107 35
107 36
107 42
107 43
107 45
107 47
107 49
107 51
107 55
107 56
107 60
107 61
107 66
107 68
107 72
107 74
107 75
107 77
107 83
107 85
107 86
107 92
107 93
107 94
107 96
107 97
107 99
107 100
107 104
108 2
108 5
108 7
108 17
108 19
108 22
108 25
108 28
108 34
108 37
108 38
108 43
108 45
108 50
108 56
108 62
108 74
108 78
108 86
108 90
108 93
108 94
108 95
108 98
108 102
108 105
108 106
109 5
109 7
109 16
109 22
109 26
109 28
109 33
109 37
109 40
109 41
109 44
109 45
109 54
109 55
109 58
109 63
109 65
109 80
109 82
109 86
109 90
109 91
109 93
109 106
109 107
110 7
110 14
110 25
110 28
110 33
110 37
110 38
110 41
110 46
110 50
110 53
110 65
110 74
110 82
110 88
110 90
110 91
110 93
110 96
110 102
110 107
111 2
111 7
111 14
111 17
111 19
111 25
111 33
111 34
111 38
111 43
111 45
111 50
111 53
111 56
111 59
111 62
111 64
111 65
111 69
111 74
111 78
111 82
111 86
111 90
111 91
111 94
111 98
111 101
111 102
111 105
111 107
111 108
112 4
112 5
112 12
112 14
112 16
112 21
112 26
112 29
112 38
112 44
112 50
112 53
112 64
112 65
112 81
112 82
112 85
112 86
112 91
112 95
112 98
112 100
112 101
113 1
113 2
113 3
113 4
113 6
113 8
113 9
113 10
113 11
113 12
113 13
113 14
113 23
113 29
113 30
113 32
113 36
113 39
113 46
113 47
113 49
113 51
113 54
113 55
113 57
113 59
113 63
113 70
113 71
113 75
113 76
113 77
113 81
113 83
113 84
113 85
113 88
113 89
113 90
113 91
113 97
113 98
113 100
113 101
113 103
113 110
113 111
113 112
114 16
114 20
114 22
114 25
114 32
114 37
114 38
114 41
114 45
114 50
114 51
114 53
114 62
114 65
114 77
114 78
114 82
114 93
114 95
114 98
114 101
114 104
114 105
115 5
115 6
115 10
115 14
115 16
115 19
115 27
115 39
115 41
115 42
115 44
115 50
115 62
115 69
115 74
115 78
115 82
115 83
115 86
115 91
115 93
115 99
115 101
115 105
115 106
115 113
116 4
116 7
116 12
116 14
116 19
116 21
116 22
116 29
116 37
116 38
116 44
116 45
116 50
116 62
116 65
116 74
116 81
116 82
116 85
116 86
116 93
116 98
116 100
116 107
116 112
116 113
117 1
117 3
117 8
117 9
117 11
117 17
117 19
117 20
117 21
117 24
117 25
117 27
117 30
117 31
117 32
117 34
117 39
117 42
117 44
117 46
117 48
117 49
117 50
117 52
117 53
117 54
117 55
117 57
117 58
117 60
117 63
117 66
117 71
117 73
117 75
117 76
117 77
117 79
117 81
117 85
117 87
117 88
117 89
117 94
117 99
117 102
117 105
117 108
117 109
117 110
117 112
117 115
118 2
118 7
118 14
118 16
118 17
118 22
118 25
118 28
118 33
118 34
118 41
118 43
118 44
118 45
118 53
118 56
118 62
118 69
118 78
118 82
118 86
118 90
118 94
118 95
118 101
118 105
118 108
118 111
118 113
119 1
119 5
119 7
119 9
119 16
119 22
119 25
119 26
119 28
119 31
119 35
119 41
119 50
119 59
119 62
119 64
119 74
119 78
119 82
119 86
119 87
119 90
119 93
119 105
119 106
119 113
119 117
120 3
120 7
120 14
120 15
120 19
120 25
120 28
120 33
120 41
120 45
120 48
120 49
120 50
120 57
120 59
120 60
120 62
120 65
120 67
120 82
120 86
120 91
120 93
120 95
120 102
120 103
120 117
121 5
121 7
121 8
121 11
121 16
121 19
121 25
121 28
121 37
121 44
121 52
121 62
121 64
121 68
121 74
121 78
121 82
121 89
121 90
121 93
121 95
121 97
121 98
121 102
121 105
121 106
121 113
122 14
122 16
122 19
122 22
122 25
122 28
122 37
122 38
122 41
122 47
122 53
122 59
122 62
122 65
122 70
122 75
122 76
122 78
122 86
122 90
122 91
122 95
122 98
122 105
122 106
122 107
122 117
123 5
123 14
123 25
123 28
123 45
123 46
123 53
123 62
123 65
123 69
123 74
123 82
123 88
123 91
123 96
123 101
123 102
123 106
123 107
123 110
123 113
123 117
124 5
124 7
124 14
124 16
124 22
124 26
124 33
124 38
124 40
124 41
124 44
124 45
124 50
124 53
124 54
124 55
124 58
124 62
124 63
124 64
124 65
124 69
124 74
124 78
124 80
124 82
124 95
124 98
124 101
124 102
124 106
124 109
124 117
125 1
125 8
125 11
125 12
125 13
125 15
125 17
125 18
125 20
125 21
125 26
125 27
125 29
125 31
125 32
125 34
125 35
125 36
125 39
125 45
125 47
125 49
125 51
125 52
125 54
125 55
125 57
125 60
125 68
125 71
125 72
125 73
125 74
125 75
125 76
125 77
125 79
125 80
125 81
125 83
125 84
125 85
125 86
125 87
125 88
125 93
125 94
125 96
125 97
125 104
125 107
125 109
125 111
125 115
125 118
125 122
126 1
126 2
126 4
126 6
126 9
126 11
126 13
126 15
126 18
126 20
126 23
126 24
126 26
126 30
126 39
126 43
126 45
126 47
126 48
126 49
126 51
126 55
126 57
126 61
126 63
126 66
126 67
126 68
126 70
126 71
126 72
126 74
126 76
126 77
126 81
126 83
126 86
126 93
126 99
126 100
126 103
126 107
126 108
126 110
126 111
126 112
126 114
126 115
126 116
126 119
126 121
126 122
126 124
126 125
127 1
127 4
127 5
127 9
127 11
127 13
127 15
127 18
127 21
127 23
127 24
127 28
127 30
127 33
127 40
127 48
127 51
127 54
127 55
127 58
127 60
127 62
127 63
127 65
127 68
127 69
127 70
127 71
127 72
127 76
127 79
127 80
127 81
127 85
127 87
127 104
127 108
127 112
127 115
127 116
127 118
127 120
127 121
127 123
128 8
128 11
128 14
128 22
128 26
128 28
128 37
128 38
128 50
128 52
128 59
128 62
128 64
128 65
128 68
128 69
128 89
128 90
128 91
128 93
128 97
128 98
128 101
128 102
128 106
128 107
128 113
128 121
128 126
129 2
129 5
129 7
129 16
129 17
129 19
129 28
129 34
129 41
129 43
129 44
129 50
129 56
129 59
129 78
129 82
129 86
129 90
129 91
129 94
129 102
129 105
129 106
129 107
129 108
129 111
129 113
129 117
129 118
129 125
129 127
130 5
130 7
130 14
130 16
130 18
130 22
130 23
130 24
130 25
130 26
130 30
130 36
130 38
130 62
130 65
130 69
130 71
130 73
130 74
130 78
130 86
130 91
130 95
130 101
130 127
131 5
131 13
131 14
131 25
131 33
131 37
131 38
131 41
131 45
131 61
131 62
131 64
131 66
131 72
131 74
131 79
131 82
131 84
131 86
131 91
131 92
131 93
131 102
131 106
131 107
131 113
131 125
132 5
132 14
132 19
132 22
132 25
132 26
132 37
132 38
132 41
132 44
132 45
132 46
132 50
132 59
132 62
132 64
132 78
132 82
132 88
132 91
132 93
132 95
132 96
132 98
132 101
132 102
132 105
132 106
132 110
132 123
133 7
133 14
133 16
133 19
133 20
133 22
133 26
133 28
133 32
133 38
133 41
133 45
133 50
133 51
133 53
133 64
133 77
133 78
133 86
133 90
133 91
133 98
133 102
133 104
133 105
133 106
133 107
133 113
133 114
133 117
133 125
133 126
134 5
134 7
134 14
134 16
134 18
134 19
134 22
134 23
134 24
134 26
134 28
134 30
134 36
134 37
134 38
134 44
134 45
134 50
134 53
134 62
134 65
134 69
134 71
134 73
134 74
134 78
134 82
134 86
134 91
134 101
134 102
134 105
134 107
134 126
134 127
134 130
135 7
135 14
135 16
135 20
135 22
135 25
135 26
135 32
135 33
135 38
135 41
135 50
135 51
135 53
135 64
135 69
135 74
135 77
135 78
135 82
135 86
135 90
135 91
135 93
135 98
135 102
135 104
135 105
135 106
135 107
135 113
135 114
135 117
135 127
135 133
136 1
136 3
136 4
136 6
136 8
136 9
136 11
136 13
136 18
136 21
136 23
136 26
136 30
136 35
136 36
136 39
136 40
136 43
136 45
136 47
136 48
136 49
136 51
136 54
136 55
136 57
136 58
136 63
136 68
136 70
136 72
136 74
136 76
136 77
136 79
136 80
136 81
136 83
136 86
136 87
136 93
136 94
136 97
136 103
136 107
136 108
136 109
136 110
136 111
136 112
136 114
136 116
136 118
136 120
136 124
136 125
136 126
136 128
136 129
136 130
136 132
136 133
137 1
137 3
137 8
137 9
137 10
137 13
137 14
137 15
137 18
137 20
137 23
137 27
137 30
137 34
137 35
137 36
137 39
137 46
137 47
137 48
137 51
137 52
137 54
137 55
137 57
137 58
137 59
137 67
137 68
137 72
137 73
137 75
137 76
137 77
137 79
137 80
137 81
137 83
137 84
137 85
137 87
137 89
137 90
137 91
137 92
137 94
137 97
137 98
137 99
137 101
137 110
137 112
137 113
137 114
137 115
137 116
137 120
137 122
137 128
137 129
137 130
137 134
138 5
138 8
138 11
138 19
138 25
138 26
138 33
138 37
138 52
138 59
138 64
138 68
138 69
138 74
138 78
138 89
138 90
138 91
138 93
138 95
138 97
138 102
138 105
138 106
138 121
138 125
138 126
138 128
138 136
138 137
139 7
139 14
139 19
139 22
139 25
139 26
139 28
139 33
139 37
139 41
139 45
139 47
139 50
139 53
139 59
139 65
139 70
139 75
139 76
139 78
139 86
139 93
139 95
139 98
139 101
139 102
139 106
139 107
139 113
139 117
139 122
139 125
139 126
139 127
139 136
139 137
140 7
140 8
140 11
140 14
140 19
140 25
140 33
140 44
140 52
140 53
140 64
140 68
140 74
140 78
140 82
140 86
140 89
140 90
140 91
140 95
140 97
140 106
140 117
140 121
140 125
140 128
140 136
140 137
140 138
141 3
141 7
141 15
141 19
141 26
141 28
141 33
141 38
141 44
141 48
141 49
141 53
141 57
141 59
141 60
141 62
141 65
141 67
141 74
141 86
141 95
141 102
141 103
141 105
141 106
141 107
141 113
141 117
141 120
141 125
141 126
141 127
141 137
142 1
142 2
142 3
142 4
142 6
142 9
142 11
142 12
142 13
142 15
142 18
142 19
142 21
142 23
142 25
142 30
142 32
142 40
142 44
142 48
142 50
142 52
142 53
142 54
142 58
142 60
142 61
142 67
142 70
142 71
142 73
142 77
142 79
142 80
142 81
142 84
142 85
142 87
142 88
142 89
142 92
142 99
142 100
142 102
142 103
142 105
142 110
142 111
142 115
142 117
142 118
142 119
142 122
142 124
142 128
142 129
142 130
142 132
142 133
142 138
142 141
143 1
143 3
143 4
143 6
143 9
143 10
143 11
143 12
143 18
143 19
143 20
143 21
143 23
143 24
143 25
143 27
143 31
143 32
143 34
143 35
143 36
143 39
143 43
143 44
143 49
143 50
143 51
143 52
143 53
143 55
143 56
143 57
143 58
143 61
143 67
143 68
143 70
143 72
143 75
143 79
143 83
143 85
143 87
143 88
143 89
143 96
143 97
143 100
143 102
143 104
143 105
143 109
143 112
143 114
143 116
143 117
143 122
143 128
143 129
143 131
143 133
143 135
143 140
143 142
144 1
144 2
144 4
144 6
144 7
144 8
144 9
144 10
144 12
144 17
144 18
144 23
144 31
144 32
144 34
144 35
144 36
144 38
144 39
144 40
144 41
144 42
144 47
144 54
144 57
144 58
144 60
144 61
144 63
144 66
144 68
144 71
144 72
144 78
144 79
144 80
144 84
144 87
144 89
144 92
144 94
144 95
144 97
144 99
144 104
144 108
144 110
144 111
144 112
144 114
144 115
144 116
144 118
144 119
144 121
144 122
144 123
144 124
144 129
144 130
144 131
144 133
144 134
144 135
144 138
144 139
144 141
145 1
145 3
145 4
145 6
145 8
145 9
145 11
145 13
145 16
145 17
145 18
145 21
145 22
145 27
145 29
145 31
145 32
145 34
145 35
145 37
145 40
145 47
145 48
145 49
145 51
145 54
145 55
145 57
145 60
145 63
145 64
145 66
145 67
145 70
145 71
145 75
145 77
145 82
145 84
145 85
145 87
145 88
145 99
145 100
145 106
145 116
145 118
145 119
145 120
145 123
145 124
145 129
145 130
145 133
145 134
145 135
145 138
145 141
146 7
146 14
146 16
146 19
146 20
146 22
146 25
146 26
146 32
146 33
146 41
146 45
146 50
146 51
146 53
146 59
146 62
146 64
146 65
146 77
146 78
146 90
146 93
146 98
146 101
146 104
146 106
146 107
146 114
146 126
146 127
146 133
146 135
146 136
146 137
146 142
146 143
147 5
147 7
147 22
147 33
147 37
147 38
147 40
147 41
147 45
147 50
147 53
147 54
147 55
147 58
147 62
147 63
147 65
147 80
147 90
147 91
147 93
147 102
147 105
147 106
147 107
147 109
147 124
147 126
147 127
147 136
147 142
147 144
148 3
148 7
148 10
148 11
148 18
148 20
148 21
148 27
148 29
148 31
148 32
148 34
148 36
148 38
148 40
148 41
148 43
148 48
148 54
148 55
148 57
148 61
148 66
148 67
148 68
148 73
148 78
148 80
148 81
148 83
148 84
148 85
148 88
148 89
148 92
148 94
148 95
148 100
148 104
148 111
148 114
148 115
148 116
148 119
148 120
148 121
148 132
148 133
148 134
148 135
148 139
148 140
148 144
149 5
149 6
149 7
149 10
149 16
149 19
149 22
149 25
149 27
149 28
149 38
149 39
149 41
149 42
149 44
149 45
149 50
149 62
149 64
149 69
149 78
149 82
149 83
149 90
149 93
149 99
149 101
149 102
149 107
149 115
149 125
149 136
149 137
149 142
149 145
149 148
150 7
150 14
150 16
150 19
150 22
150 26
150 28
150 33
150 41
150 44
150 45
150 47
150 50
150 53
150 59
150 62
150 64
150 65
150 69
150 70
150 74
150 75
150 76
150 82
150 90
150 95
150 101
150 106
150 113
150 117
150 122
150 125
150 136
150 139
150 142
150 143
150 145
150 148
151 5
151 16
151 26
151 28
151 37
151 44
151 45
151 46
151 50
151 53
151 59
151 65
151 74
151 78
151 88
151 93
151 96
151 101
151 102
151 107
151 110
151 113
151 117
151 123
151 125
151 127
151 132
151 136
151 142
151 144
152 1
152 3
152 8
152 9
152 10
152 12
152 13
152 14
152 15
152 17
152 18
152 20
152 21
152 23
152 24
152 29
152 31
152 34
152 35
152 39
152 42
152 43
152 46
152 48
152 51
152 58
152 59
152 61
152 66
152 67
152 68
152 71
152 72
152 73
152 75
152 77
152 79
152 80
152 81
152 83
152 87
152 89
152 90
152 91
152 96
152 98
152 99
152 100
152 101
152 103
152 110
152 111
152 112
152 113
152 114
152 115
152 121
152 122
152 124
152 130
152 131
152 132
152 133
152 137
152 138
152 139
152 141
152 150
153 1
153 5
153 9
153 19
153 22
153 25
153 26
153 31
153 35
153 38
153 41
153 44
153 45
153 53
153 65
153 69
153 82
153 87
153 93
153 95
153 101
153 105
153 113
153 117
153 119
153 125
153 126
153 136
153 137
153 143
153 145
153 152
154 16
154 19
154 20
154 25
154 32
154 33
154 37
154 41
154 50
154 51
154 53
154 64
154 65
154 77
154 78
154 90
154 91
154 93
154 95
154 101
154 102
154 104
154 106
154 114
154 117
154 126
154 133
154 135
154 137
154 142
154 143
154 144
154 145
154 146
155 5
155 14
155 26
155 41
155 45
155 47
155 50
155 62
155 64
155 69
155 70
155 75
155 76
155 78
155 82
155 90
155 93
155 95
155 117
155 122
155 125
155 127
155 136
155 139
155 143
155 144
155 148
155 150
155 152
156 7
156 13
156 22
156 25
156 33
156 37
156 38
156 44
156 53
156 61
156 62
156 64
156 65
156 66
156 69
156 72
156 74
156 78
156 79
156 84
156 86
156 90
156 92
156 93
156 98
156 101
156 105
156 106
156 117
156 125
156 126
156 127
156 131
156 136
156 144
157 5
157 7
157 14
157 16
157 19
157 25
157 28
157 33
157 37
157 38
157 41
157 44
157 45
157 47
157 50
157 59
157 62
157 65
157 70
157 74
157 75
157 76
157 78
157 91
157 93
157 95
157 98
157 101
157 102
157 105
157 106
157 107
157 113
157 117
157 122
157 137
157 139
157 142
157 143
157 144
157 150
157 155
158 1
158 2
158 4
158 6
158 10
158 15
158 16
158 17
158 20
158 21
158 22
158 23
158 30
158 31
158 35
158 37
158 39
158 40
158 42
158 46
158 47
158 49
158 52
158 54
158 55
158 56
158 58
158 60
158 61
158 64
158 66
158 67
158 70
158 71
158 72
158 77
158 80
158 82
158 83
158 85
158 87
158 88
158 92
158 94
158 96
158 97
158 106
158 108
158 109
158 110
158 114
158 119
158 124
158 129
158 131
158 132
158 133
158 138
158 139
158 140
158 141
158 145
158 147
158 149
158 151
158 153
158 155
158 156
158 157
159 1
159 5
159 7
159 9
159 14
159 16
159 19
159 25
159 26
159 28
159 31
159 35
159 37
159 44
159 45
159 50
159 59
159 62
159 69
159 74
159 82
159 87
159 93
159 95
159 98
159 101
159 102
159 105
159 107
159 119
159 125
159 136
159 137
159 148
159 153
159 158
160 7
160 14
160 16
160 22
160 25
160 33
160 37
160 41
160 44
160 46
160 62
160 65
160 74
160 78
160 82
160 86
160 88
160 90
160 91
160 93
160 96
160 98
160 101
160 102
160 105
160 107
160 110
160 113
160 123
160 125
160 132
160 136
160 137
160 144
160 151
160 152
160 158
161 5
161 7
161 13
161 14
161 22
161 25
161 26
161 28
161 33
161 38
161 41
161 45
161 50
161 59
161 61
161 62
161 66
161 69
161 72
161 74
161 79
161 84
161 86
161 90
161 91
161 92
161 93
161 105
161 106
161 107
161 113
161 131
161 152
161 156
162 5
162 7
162 14
162 19
162 22
162 28
162 33
162 38
162 44
162 45
162 46
162 59
162 64
162 65
162 69
162 74
162 82
162 86
162 88
162 93
162 96
162 101
162 102
162 105
162 106
162 107
162 110
162 113
162 123
162 127
162 132
162 136
162 143
162 145
162 148
162 151
162 152
162 158
162 160
163 4
163 7
163 12
163 14
163 16
163 19
163 21
163 25
163 29
163 38
163 41
163 50
163 53
163 59
163 64
163 74
163 81
163 82
163 85
163 86
163 90
163 93
163 100
163 106
163 107
163 112
163 113
163 116
163 117
163 125
163 136
163 143
163 144
163 152
164 5
164 7
164 19
164 25
164 28
164 33
164 38
164 40
164 41
164 45
164 54
164 55
164 58
164 63
164 64
164 65
164 78
164 80
164 82
164 86
164 90
164 91
164 98
164 101
164 102
164 105
164 106
164 109
164 124
164 126
164 127
164 137
164 142
164 143
164 144
164 147
164 152
165 14
165 16
165 25
165 33
165 37
165 38
165 41
165 44
165 47
165 50
165 59
165 62
165 64
165 65
165 70
165 74
165 75
165 76
165 82
165 86
165 95
165 98
165 102
165 105
165 106
165 113
165 117
165 122
165 125
165 127
165 136
165 139
165 143
165 144
165 148
165 150
165 152
165 155
165 157
166 1
166 2
166 3
166 5
166 6
166 8
166 9
166 10
166 17
166 21
166 23
166 24
166 28
166 29
166 30
166 32
166 33
166 35
166 36
166 42
166 43
166 46
166 47
166 48
166 49
166 51
166 52
166 55
166 57
166 60
166 62
166 65
166 66
166 67
166 68
166 69
166 70
166 71
166 73
166 75
166 76
166 77
166 79
166 83
166 84
166 85
166 89
166 92
166 96
166 99
166 100
166 103
166 104
166 109
166 110
166 115
166 116
166 118
166 119
166 120
166 123
166 124
166 127
166 128
166 129
166 132
166 134
166 135
166 139
166 141
166 147
166 153
166 155
166 156
166 157
166 160
166 162
166 163
166 164
167 1
167 4
167 6
167 10
167 11
167 13
167 14
167 20
167 23
167 27
167 30
167 32
167 35
167 36
167 42
167 47
167 54
167 56
167 57
167 59
167 60
167 63
167 70
167 73
167 75
167 76
167 79
167 80
167 84
167 85
167 87
167 88
167 90
167 91
167 92
167 96
167 97
167 98
167 99
167 100
167 101
167 103
167 110
167 112
167 113
167 115
167 121
167 122
167 123
167 124
167 128
167 131
167 132
167 133
167 134
167 135
167 137
167 138
167 139
167 140
167 141
167 147
167 149
167 152
167 153
167 155
167 156
167 159
167 160
167 161
167 162
167 163
167 164
167 165
168 1
168 2
168 4
168 7
168 10
168 11
168 12
168 17
168 20
168 23
168 24
168 29
168 30
168 34
168 35
168 36
168 38
168 39
168 40
168 41
168 42
168 43
168 46
168 47
168 48
168 51
168 52
168 55
168 58
168 60
168 63
168 66
168 73
168 75
168 77
168 78
168 79
168 81
168 85
168 89
168 95
168 103
168 104
168 108
168 109
168 110
168 111
168 116
168 118
168 119
168 120
168 121
168 122
168 124
168 129
168 130
168 132
168 133
168 134
168 135
168 138
168 139
168 141
168 144
168 147
168 148
168 149
168 151
168 154
168 155
168 156
168 159
168 163
168 164
169 6
169 7
169 10
169 14
169 16
169 19
169 25
169 26
169 27
169 37
169 38
169 39
169 41
169 42
169 44
169 59
169 64
169 65
169 74
169 78
169 82
169 83
169 90
169 91
169 93
169 95
169 98
169 99
169 101
169 102
169 113
169 115
169 125
169 127
169 136
169 137
169 143
169 148
169 149
169 158
169 168
170 4
170 5
170 7
170 12
170 16
170 19
170 21
170 26
170 29
170 33
170 37
170 41
170 44
170 45
170 50
170 53
170 59
170 62
170 64
170 65
170 69
170 74
170 78
170 81
170 85
170 90
170 91
170 95
170 98
170 100
170 101
170 105
170 106
170 112
170 116
170 117
170 126
170 136
170 137
170 144
170 145
170 152
170 158
170 163
170 167
170 168
171 5
171 16
171 19
171 26
171 28
171 37
171 44
171 45
171 46
171 53
171 62
171 64
171 65
171 78
171 82
171 88
171 90
171 93
171 95
171 96
171 98
171 101
171 106
171 110
171 113
171 123
171 125
171 126
171 132
171 136
171 137
171 142
171 144
171 148
171 151
171 158
171 160
171 162
171 168
172 4
172 7
172 12
172 16
172 19
172 21
172 22
172 25
172 26
172 28
172 29
172 33
172 41
172 44
172 45
172 59
172 62
172 74
172 78
172 81
172 82
172 85
172 93
172 98
172 100
172 101
172 102
172 105
172 107
172 112
172 113
172 116
172 117
172 136
172 143
172 144
172 148
172 152
172 163
172 166
172 167
172 170
173 2
173 4
173 6
173 7
173 8
173 9
173 10
173 12
173 15
173 17
173 18
173 20
173 24
173 27
173 29
173 30
173 31
173 34
173 35
173 38
173 39
173 41
173 43
173 46
173 47
173 51
173 52
173 54
173 55
173 56
173 58
173 60
173 61
173 66
173 70
173 71
173 75
173 76
173 77
173 78
173 84
173 85
173 88
173 89
173 95
173 100
173 104
173 109
173 110
173 111
173 115
173 116
173 118
173 119
173 120
173 124
173 132
173 135
173 138
173 139
173 140
173 141
173 144
173 147
173 148
173 149
173 150
173 151
173 153
173 155
173 159
173 160
173 162
173 164
173 168
173 169
173 170
174 1
174 9
174 14
174 16
174 22
174 25
174 28
174 31
174 35
174 37
174 38
174 41
174 44
174 50
174 62
174 65
174 69
174 74
174 87
174 95
174 101
174 102
174 105
174 107
174 117
174 119
174 126
174 127
174 137
174 142
174 144
174 145
174 152
174 153
174 158
174 159
174 166
174 167
174 173
175 2
175 4
175 15
175 17
175 20
175 24
175 26
175 27
175 29
175 36
175 39
175 40
175 45
175 47
175 48
175 49
175 51
175 54
175 55
175 56
175 63
175 68
175 70
175 71
175 72
175 73
175 74
175 75
175 76
175 79
175 80
175 81
175 83
175 85
175 86
175 89
175 93
175 97
175 99
175 100
175 103
175 104
175 107
175 110
175 114
175 115
175 116
175 121
175 122
175 125
175 126
175 130
175 131
175 133
175 135
175 136
175 140
175 147
175 154
175 156
175 157
175 159
175 161
175 163
175 165
175 169
175 171
175 172
176 1
176 7
176 8
176 9
176 11
176 15
176 18
176 32
176 34
176 38
176 40
176 41
176 42
176 47
176 48
176 49
176 55
176 56
176 70
176 71
176 75
176 77
176 78
176 79
176 81
176 83
176 84
176 85
176 87
176 89
176 95
176 96
176 103
176 104
176 109
176 111
176 114
176 118
176 119
176 120
176 122
176 128
176 129
176 130
176 131
176 132
176 133
176 134
176 138
176 140
176 144
176 147
176 148
176 149
176 150
176 151
176 153
176 155
176 156
176 159
176 160
176 161
176 163
176 164
176 165
176 168
176 169
176 171
176 172
176 173
177 4
177 8
177 12
177 16
177 22
177 24
177 29
177 30
177 32
177 34
177 37
177 39
177 40
177 43
177 48
177 49
177 51
177 56
177 60
177 63
177 64
177 66
177 67
177 68
177 70
177 71
177 73
177 76
177 77
177 79
177 81
177 82
177 84
177 85
177 87
177 88
177 96
177 97
177 100
177 103
177 104
177 106
177 108
177 109
177 110
177 111
177 112
177 115
177 119
177 122
177 129
177 135
177 140
177 141
177 145
177 146
177 147
177 149
177 150
177 151
177 153
177 158
177 159
177 162
177 164
177 165
177 171
178 1
178 9
178 10
178 13
178 17
178 21
178 23
178 24
178 26
178 27
178 31
178 32
178 39
178 40
178 43
178 45
178 48
178 49
178 52
178 55
178 57
178 58
178 60
178 63
178 66
178 67
178 70
178 74
178 75
178 80
178 83
178 85
178 86
178 87
178 89
178 93
178 96
178 97
178 99
178 107
178 109
178 110
178 115
178 116
178 118
178 119
178 120
178 121
178 122
178 123
178 125
178 126
178 128
178 131
178 132
178 134
178 136
178 139
178 141
178 150
178 154
178 155
178 157
178 160
178 161
178 164
178 165
178 169
178 172
178 175
179 2
179 3
179 5
179 8
179 9
179 10
179 12
179 17
179 20
179 21
179 28
179 29
179 30
179 32
179 33
179 34
179 40
179 43
179 47
179 48
179 49
179 52
179 55
179 56
179 57
179 60
179 62
179 65
179 67
179 69
179 72
179 73
179 76
179 77
179 79
179 80
179 84
179 85
179 87
179 88
179 92
179 94
179 96
179 97
179 100
179 103
179 104
179 109
179 112
179 114
179 115
179 119
179 121
179 122
179 124
179 127
179 128
179 129
179 130
179 131
179 132
179 133
179 141
179 153
179 154
179 155
179 156
179 160
179 161
179 166
179 170
179 171
179 172
179 174
180 1
180 7
180 9
180 14
180 16
180 19
180 22
180 31
180 33
180 35
180 38
180 45
180 50
180 59
180 62
180 64
180 65
180 69
180 78
180 82
180 86
180 87
180 90
180 95
180 98
180 102
180 105
180 106
180 113
180 119
180 125
180 126
180 137
180 142
180 143
180 144
180 145
180 148
180 153
180 159
180 166
180 174
180 175
180 176
180 177
180 178
181 7
181 25
181 26
181 28
181 33
181 37
181 38
181 44
181 45
181 47
181 59
181 62
181 70
181 75
181 76
181 86
181 91
181 95
181 98
181 105
181 106
181 122
181 136
181 139
181 142
181 143
181 144
181 145
181 150
181 152
181 155
181 157
181 158
181 165
181 167
181 168
181 176
181 178
181 179
182 1
182 3
182 4
182 6
182 8
182 9
182 11
182 12
182 15
182 16
182 20
182 21
182 22
182 23
182 24
182 27
182 29
182 30
182 35
182 37
182 39
182 40
182 42
182 47
182 48
182 49
182 58
182 60
182 64
182 66
182 67
182 70
182 72
182 73
182 76
182 77
182 79
182 80
182 81
182 82
182 84
182 88
182 89
182 92
182 96
182 97
182 99
182 100
182 103
182 106
182 108
182 109
182 110
182 112
182 114
182 116
182 120
182 121
182 122
182 129
182 130
182 134
182 139
182 140
182 141
182 145
182 147
182 150
182 153
182 155
182 156
182 157
182 158
182 159
182 162
182 171
182 177
182 180
182 181
183 1
183 4
183 5
183 6
183 8
183 9
183 10
183 12
183 17
183 21
183 23
183 24
183 27
183 28
183 30
183 32
183 33
183 34
183 36
183 39
183 40
183 42
183 47
183 48
183 51
183 54
183 55
183 56
183 60
183 62
183 65
183 69
183 71
183 73
183 79
183 83
183 84
183 87
183 96
183 97
183 99
183 100
183 104
183 110
183 112
183 115
183 116
183 119
183 120
183 121
183 123
183 127
183 129
183 130
183 132
183 149
183 150
183 153
183 156
183 157
183 160
183 161
183 164
183 165
183 166
183 169
183 171
183 172
183 179
183 180
183 181
184 1
184 5
184 9
184 16
184 25
184 26
184 28
184 31
184 35
184 37
184 38
184 62
184 69
184 82
184 87
184 90
184 91
184 105
184 113
184 117
184 119
184 143
184 144
184 152
184 153
184 158
184 159
184 167
184 168
184 173
184 174
184 176
184 177
184 180
185 7
185 14
185 18
185 22
185 23
185 24
185 26
185 28
185 30
185 33
185 36
185 37
185 50
185 53
185 62
185 64
185 69
185 71
185 73
185 74
185 86
185 90
185 91
185 102
185 105
185 107
185 113
185 117
185 125
185 130
185 134
185 142
185 143
185 144
185 152
185 168
185 173
185 175
185 178
185 179
185 182
185 183
186 4
186 5
186 6
186 9
186 12
186 13
186 17
186 18
186 23
186 27
186 28
186 29
186 30
186 32
186 33
186 34
186 35
186 39
186 40
186 43
186 48
186 49
186 51
186 52
186 54
186 55
186 57
186 60
186 62
186 63
186 65
186 66
186 69
186 70
186 72
186 75
186 76
186 81
186 83
186 84
186 88
186 89
186 92
186 94
186 97
186 100
186 103
186 108
186 110
186 112
186 115
186 116
186 119
186 121
186 122
186 123
186 124
186 127
186 128
186 129
186 130
186 132
186 133
186 139
186 140
186 141
186 147
186 149
186 150
186 151
186 153
186 155
186 156
186 161
186 163
186 164
186 165
186 166
186 169
186 172
186 174
186 179
186 183
186 184
186 185
187 5
187 7
187 18
187 19
187 22
187 23
187 24
187 25
187 26
187 28
187 30
187 36
187 38
187 44
187 45
187 50
187 53
187 59
187 62
187 64
187 65
187 69
187 71
187 73
187 74
187 78
187 98
187 101
187 102
187 106
187 126
187 127
187 130
187 134
187 136
187 137
187 142
187 143
187 144
187 148
187 152
187 166
187 167
187 168
187 173
187 177
187 179
187 182
187 183
187 185
187 186
188 16
188 25
188 26
188 28
188 33
188 37
188 38
188 41
188 44
188 45
188 46
188 59
188 65
188 74
188 78
188 86
188 88
188 91
188 95
188 96
188 98
188 101
188 102
188 105
188 110
188 113
188 117
188 123
188 132
188 136
188 137
188 142
188 143
188 144
188 145
188 148
188 151
188 152
188 158
188 160
188 162
188 166
188 167
188 171
188 175
188 176
188 177
188 179
188 182
189 5
189 13
189 16
189 22
189 25
189 26
189 28
189 33
189 37
189 41
189 44
189 53
189 59
189 61
189 64
189 66
189 72
189 74
189 78
189 79
189 84
189 92
189 93
189 98
189 101
189 102
189 106
189 125
189 126
189 131
189 136
189 144
189 145
189 148
189 152
189 156
189 158
189 161
189 166
189 168
189 175
189 176
189 178
189 179
189 183
189 186
190 1
190 3
190 4
190 6
190 8
190 9
190 11
190 12
190 15
190 16
190 21
190 22
190 23
190 24
190 27
190 29
190 34
190 35
190 37
190 39
190 42
190 43
190 46
190 57
190 58
190 61
190 63
190 64
190 67
190 71
190 75
190 79
190 80
190 81
190 82
190 83
190 85
190 88
190 92
190 94
190 96
190 99
190 103
190 104
190 106
190 108
190 109
190 112
190 114
190 118
190 119
190 122
190 123
190 124
190 128
190 130
190 132
190 133
190 134
190 135
190 138
190 140
190 141
190 145
190 147
190 151
190 153
190 154
190 158
190 159
190 160
190 161
190 162
190 163
190 164
190 165
190 171
190 172
190 177
190 180
190 181
190 182
190 185
190 187
191 5
191 7
191 16
191 19
191 20
191 22
191 25
191 28
191 32
191 33
191 37
191 38
191 41
191 45
191 50
191 51
191 64
191 65
191 69
191 74
191 77
191 78
191 82
191 95
191 101
191 102
191 104
191 105
191 113
191 114
191 117
191 125
191 126
191 127
191 133
191 135
191 136
191 143
191 144
191 145
191 146
191 148
191 154
191 158
191 168
191 175
191 176
191 179
191 182
191 183
192 1
192 2
192 7
192 8
192 10
192 17
192 18
192 21
192 24
192 29
192 30
192 31
192 34
192 35
192 38
192 39
192 41
192 42
192 43
192 47
192 48
192 54
192 55
192 57
192 58
192 60
192 61
192 63
192 73
192 75
192 78
192 81
192 83
192 87
192 89
192 92
192 95
192 97
192 99
192 100
192 103
192 108
192 109
192 110
192 112
192 114
192 118
192 119
192 124
192 128
192 131
192 132
192 135
192 138
192 139
192 140
192 141
192 144
192 147
192 148
192 151
192 153
192 155
192 156
192 159
192 161
192 165
192 168
192 170
192 171
192 172
192 173
192 176
192 184
192 191
193 1
193 9
193 14
193 22
193 26
193 31
193 33
193 35
193 37
193 44
193 45
193 50
193 59
193 62
193 64
193 65
193 74
193 86
193 87
193 91
193 93
193 95
193 98
193 101
193 105
193 106
193 119
193 125
193 126
193 127
193 136
193 137
193 142
193 143
193 153
193 159
193 166
193 168
193 173
193 174
193 179
193 180
193 182
193 183
193 184
193 190
193 192
194 3
194 7
194 15
194 19
194 25
194 28
194 33
194 38
194 44
194 48
194 49
194 50
194 57
194 60
194 65
194 67
194 69
194 74
194 86
194 93
194 95
194 98
194 101
194 103
194 105
194 107
194 113
194 120
194 126
194 137
194 141
194 142
194 143
194 144
194 145
194 148
194 166
194 167
194 175
194 176
194 177
194 179
194 182
194 183
194 186
194 190
195 1
195 4
195 6
195 8
195 15
195 17
195 18
195 19
195 20
195 21
195 23
195 24
195 25
195 27
195 29
195 31
195 35
195 40
195 43
195 44
195 49
195 50
195 52
195 53
195 55
195 57
195 61
195 66
195 68
195 71
195 72
195 73
195 75
195 79
195 80
195 81
195 83
195 85
195 87
195 88
195 89
195 92
195 94
195 99
195 102
195 104
195 105
195 108
195 111
195 112
195 114
195 117
195 119
195 121
195 124
195 129
195 130
195 133
195 135
195 139
195 140
195 141
195 142
195 143
195 146
195 147
195 149
195 150
195 151
195 153
195 154
195 155
195 159
195 160
195 161
195 162
195 164
195 169
195 170
195 171
195 172
195 180
195 181
195 184
195 185
195 187
195 188
195 191
195 193
196 6
196 10
196 16
196 19
196 22
196 25
196 26
196 27
196 33
196 38
196 39
196 42
196 44
196 45
196 50
196 59
196 62
196 64
196 65
196 69
196 74
196 83
196 93
196 95
196 99
196 102
196 107
196 115
196 117
196 125
196 127
196 136
196 137
196 145
196 149
196 158
196 166
196 167
196 169
196 175
196 176
196 179
196 182
196 183
196 186
196 190
196 192
197 7
197 16
197 22
197 26
197 28
197 37
197 38
197 40
197 41
197 44
197 50
197 53
197 54
197 55
197 58
197 59
197 63
197 65
197 69
197 78
197 80
197 86
197 91
197 95
197 105
197 109
197 117
197 124
197 125
197 126
197 136
197 137
197 142
197 143
197 144
197 147
197 152
197 158
197 164
197 168
197 173
197 178
197 179
197 182
197 183
197 186
198 8
198 11
198 14
198 19
198 33
198 37
198 38
198 41
198 44
198 50
198 52
198 53
198 59
198 62
198 65
198 68
198 74
198 82
198 86
198 89
198 90
198 93
198 97
198 98
198 101
198 102
198 105
198 106
198 113
198 121
198 128
198 137
198 138
198 140
198 142
198 145
198 152
198 158
198 166
198 167
198 168
198 173
198 175
198 176
198 178
198 179
198 182
198 190
199 1
199 2
199 3
199 8
199 11
199 12
199 14
199 17
199 20
199 21
199 24
199 27
199 29
199 31
199 32
199 34
199 39
199 40
199 42
199 43
199 46
199 48
199 52
199 54
199 55
199 59
199 60
199 67
199 71
199 72
199 73
199 75
199 76
199 77
199 79
199 81
199 84
199 85
199 87
199 90
199 91
199 96
199 98
199 99
199 101
199 103
199 104
199 109
199 112
199 113
199 114
199 116
199 120
199 121
199 123
199 124
199 128
199 130
199 131
199 132
199 133
199 137
199 140
199 141
199 150
199 151
199 152
199 153
199 154
199 155
199 156
199 157
199 160
199 163
199 165
199 167
199 169
199 171
199 174
199 181
199 184
199 185
199 187
199 189
200 2
200 5
200 17
200 22
200 34
200 37
200 38
200 43
200 53
200 56
200 62
200 65
200 74
200 86
200 90
200 91
200 94
200 95
200 98
200 105
200 106
200 107
200 108
200 111
200 117
200 118
200 126
200 129
200 137
200 143
200 145
200 148
200 158
200 166
200 168
200 175
200 178
200 183
200 186
200 192
200 195
200 199
